Maximize

T_0


Subject To

a0: 32.0 x_0 + 16.0 x_1 + 26.0 x_2 + 14.0 x_3 + 46.0 x_4 + 24.0 x_5 + 18.0 x_6 + 34.0 x_7 + 45.0 x_8 <= 500.0
b0: 44.0 x_0 + 13.0 x_1 + 16.0 x_2 + 18.0 x_3 + 51.0 x_4 + 23.0 x_5 + 21.0 x_6 + 32.0 x_7 + 55.0 x_8 <= 500.0
c0: x_0 - T_0 < 0
c1: x_1 - T_0 < 0
c2: x_2 - T_0 < 0
c3: x_3 - T_0 < 0
c4: x_4 - T_0 < 0
c5: x_5 - T_0 < 0
c6: x_6 - T_0 < 0
c7: x_7 - T_0 < 0
c8: x_8 - T_0 < 0
d0: 20.0 x_0 < 100
d1: 10.0 x_1 < 100
d2: 80.0 x_2 < 100
d3: 30.0 x_3 < 100
d4: 50.0 x_4 < 100
d5: 60.0 x_5 < 100
d6: 70.0 x_6 < 100
d7: 40.0 x_7 < 100
d8: 90.0 x_8 < 100



Bounds


x_0 <= 100
x_1 <= 200
x_2 <= 300
x_3 <= 400
x_4 <= 500
x_5 <= 400
x_6 <= 300
x_7 <= 200
x_8 <= 100




General

 x_0 x_1 x_2 x_3 x_4 x_5 x_6 x_7 x_8



End
